(set-info :source |printed by MathSAT|)
(declare-fun call_firefly.ite23 () Int)
(declare-fun call_firefly.ite12 () Int)
(declare-fun call_firefly.flby () Int)
(declare-fun dirty () Int)
(declare-fun param_e3 () Bool)
(declare-fun exclusive () Int)
(declare-fun call_firefly.shared () Int)
(declare-fun call_firefly.ite30 () Int)
(declare-fun call_firefly.ite15 () Int)
(declare-fun call_firefly.garde8 () Bool)
(declare-fun call_Sofar.flby () Bool)
(declare-fun param_i_invalid () Int)
(declare-fun param_e6 () Bool)
(declare-fun call_firefly.invalid () Int)
(declare-fun call_firefly.ite32 () Int)
(declare-fun call_firefly.ite27 () Int)
(declare-fun call_excludes8.excludes () Bool)
(declare-fun call_firefly.ite17 () Int)
(declare-fun call_firefly.ite39 () Int)
(declare-fun call_firefly.ite4 () Int)
(declare-fun call_firefly.ite21 () Int)
(declare-fun param_e1 () Bool)
(declare-fun call_firefly.ite19 () Int)
(declare-fun call_firefly.ite20 () Int)
(declare-fun _OK_ () Bool)
(declare-fun call_firefly.ite9 () Int)
(declare-fun call_firefly.ite25 () Int)
(declare-fun call_firefly.ite29 () Int)
(declare-fun call_firefly.flby2 () Int)
(declare-fun shared () Int)
(declare-fun call_firefly.ite24 () Int)
(declare-fun call_firefly.flby4 () Int)
(declare-fun call_firefly.ite2 () Int)
(declare-fun invalid () Int)
(declare-fun call_firefly.ite11 () Int)
(declare-fun call_firefly.ite5 () Int)
(declare-fun param_e7 () Bool)
(declare-fun param_e8 () Bool)
(declare-fun call_firefly.ite35 () Int)
(declare-fun param_e5 () Bool)
(declare-fun call_firefly.ite36 () Int)
(declare-fun call_firefly.ite10 () Int)
(declare-fun call_firefly.ite26 () Int)
(declare-fun call_firefly.ite31 () Int)
(declare-fun call_firefly.dirty () Int)
(declare-fun call_firefly.ite18 () Int)
(declare-fun call_firefly.ite14 () Int)
(declare-fun call_firefly.mem_invalid () Int)
(declare-fun call_firefly.ite34 () Int)
(declare-fun call_firefly.ite13 () Int)
(declare-fun call_firefly.flby3 () Int)
(declare-fun call_firefly.ite28 () Int)
(declare-fun call_firefly.ite6 () Int)
(declare-fun call_firefly.ite40 () Int)
(declare-fun call_firefly.garde6 () Bool)
(declare-fun call_firefly.ite3 () Int)
(declare-fun call_firefly.exclusive () Int)
(declare-fun call_firefly.ite8 () Int)
(declare-fun env () Bool)
(declare-fun call_firefly.ite33 () Int)
(declare-fun param_e4 () Bool)
(declare-fun call_firefly.ite16 () Int)
(declare-fun call_firefly.garde3 () Bool)
(declare-fun call_firefly.ite7 () Int)
(declare-fun call_firefly.ite38 () Int)
(declare-fun call_firefly.flby5 () Int)
(declare-fun call_firefly.ite22 () Int)
(declare-fun param_e2 () Bool)
(declare-fun call_firefly.ite () Int)
(declare-fun call_Sofar.Sofar () Bool)
(declare-fun call_firefly.ite37 () Int)
(define-fun .def_1100 () Bool (= call_Sofar.flby call_Sofar.Sofar))
(define-fun .def_908 () Bool (not param_e1))
(define-fun .def_881 () Bool (not param_e2))
(define-fun .def_1048 () Bool (and .def_881 .def_908))
(define-fun .def_927 () Bool (not param_e3))
(define-fun .def_1049 () Bool (and .def_927 .def_1048))
(define-fun .def_952 () Bool (not param_e4))
(define-fun .def_1050 () Bool (and .def_952 .def_1049))
(define-fun .def_969 () Bool (not param_e5))
(define-fun .def_1051 () Bool (and .def_969 .def_1050))
(define-fun .def_987 () Bool (not param_e6))
(define-fun .def_1052 () Bool (and .def_987 .def_1051))
(define-fun .def_828 () Bool (not param_e7))
(define-fun .def_1053 () Bool (and .def_828 .def_1052))
(define-fun .def_812 () Bool (not param_e8))
(define-fun .def_1089 () Bool (and .def_812 .def_1053))
(define-fun .def_1082 () Bool (and .def_881 param_e1))
(define-fun .def_1083 () Bool (and .def_927 .def_1082))
(define-fun .def_1084 () Bool (and .def_952 .def_1083))
(define-fun .def_1085 () Bool (and .def_969 .def_1084))
(define-fun .def_1086 () Bool (and .def_987 .def_1085))
(define-fun .def_1087 () Bool (and .def_828 .def_1086))
(define-fun .def_1088 () Bool (and .def_812 .def_1087))
(define-fun .def_1090 () Bool (or .def_1088 .def_1089))
(define-fun .def_1075 () Bool (and param_e2 .def_908))
(define-fun .def_1076 () Bool (and .def_927 .def_1075))
(define-fun .def_1077 () Bool (and .def_952 .def_1076))
(define-fun .def_1078 () Bool (and .def_969 .def_1077))
(define-fun .def_1079 () Bool (and .def_987 .def_1078))
(define-fun .def_1080 () Bool (and .def_828 .def_1079))
(define-fun .def_1081 () Bool (and .def_812 .def_1080))
(define-fun .def_1091 () Bool (or .def_1081 .def_1090))
(define-fun .def_1069 () Bool (and param_e3 .def_1048))
(define-fun .def_1070 () Bool (and .def_952 .def_1069))
(define-fun .def_1071 () Bool (and .def_969 .def_1070))
(define-fun .def_1072 () Bool (and .def_987 .def_1071))
(define-fun .def_1073 () Bool (and .def_828 .def_1072))
(define-fun .def_1074 () Bool (and .def_812 .def_1073))
(define-fun .def_1092 () Bool (or .def_1074 .def_1091))
(define-fun .def_1064 () Bool (and param_e4 .def_1049))
(define-fun .def_1065 () Bool (and .def_969 .def_1064))
(define-fun .def_1066 () Bool (and .def_987 .def_1065))
(define-fun .def_1067 () Bool (and .def_828 .def_1066))
(define-fun .def_1068 () Bool (and .def_812 .def_1067))
(define-fun .def_1093 () Bool (or .def_1068 .def_1092))
(define-fun .def_1060 () Bool (and param_e5 .def_1050))
(define-fun .def_1061 () Bool (and .def_987 .def_1060))
(define-fun .def_1062 () Bool (and .def_828 .def_1061))
(define-fun .def_1063 () Bool (and .def_812 .def_1062))
(define-fun .def_1094 () Bool (or .def_1063 .def_1093))
(define-fun .def_1057 () Bool (and param_e6 .def_1051))
(define-fun .def_1058 () Bool (and .def_828 .def_1057))
(define-fun .def_1059 () Bool (and .def_812 .def_1058))
(define-fun .def_1095 () Bool (or .def_1059 .def_1094))
(define-fun .def_1055 () Bool (and param_e7 .def_1052))
(define-fun .def_1056 () Bool (and .def_812 .def_1055))
(define-fun .def_1096 () Bool (or .def_1056 .def_1095))
(define-fun .def_1054 () Bool (and param_e8 .def_1053))
(define-fun .def_1097 () Bool (or .def_1054 .def_1096))
(define-fun .def_1098 () Bool (= call_excludes8.excludes .def_1097))
(define-fun .def_1046 () Bool (= call_firefly.flby call_firefly.mem_invalid))
(define-fun .def_1044 () Bool (= call_firefly.flby5 call_firefly.shared))
(define-fun .def_1042 () Bool (= call_firefly.flby4 call_firefly.exclusive))
(define-fun .def_1040 () Bool (= call_firefly.flby3 call_firefly.dirty))
(define-fun .def_1038 () Bool (= call_firefly.flby2 call_firefly.invalid))
(define-fun .def_1036 () Bool (= env call_Sofar.Sofar))
(define-fun .def_1033 () Bool (= shared call_firefly.shared))
(define-fun .def_1029 () Bool (= exclusive call_firefly.exclusive))
(define-fun .def_1026 () Bool (= dirty call_firefly.dirty))
(define-fun .def_1022 () Bool (= invalid call_firefly.invalid))
(define-fun .def_1015 () Bool (<= 2 exclusive))
(define-fun .def_1016 () Bool (not .def_1015))
(define-fun .def_1013 () Bool (not env))
(define-fun .def_1017 () Bool (or .def_1013 .def_1016))
(define-fun .def_1018 () Bool (= _OK_ .def_1017))
(define-fun .def_1007 () Bool (= call_firefly.ite36 call_firefly.ite37))
(define-fun .def_1008 () Bool (or param_e7 .def_1007))
(define-fun .def_1004 () Bool (= call_firefly.ite37 call_firefly.ite34))
(define-fun .def_1005 () Bool (or .def_828 .def_1004))
(define-fun .def_1000 () Bool (= call_firefly.ite8 call_firefly.ite5))
(define-fun .def_1001 () Bool (or .def_828 .def_1000))
(define-fun .def_997 () Bool (= call_firefly.ite7 call_firefly.ite8))
(define-fun .def_998 () Bool (or param_e7 .def_997))
(define-fun .def_1002 () Bool (and .def_998 .def_1001))
(define-fun .def_1006 () Bool (and .def_1002 .def_1005))
(define-fun .def_1009 () Bool (and .def_1006 .def_1008))
(define-fun .def_993 () Bool (= call_firefly.ite17 call_firefly.ite18))
(define-fun .def_994 () Bool (or param_e6 .def_993))
(define-fun .def_990 () Bool (= call_firefly.ite15 call_firefly.ite18))
(define-fun .def_991 () Bool (or .def_987 .def_990))
(define-fun .def_986 () Bool (= call_firefly.ite9 call_firefly.ite4))
(define-fun .def_988 () Bool (or .def_986 .def_987))
(define-fun .def_982 () Bool (= call_firefly.ite9 call_firefly.ite8))
(define-fun .def_984 () Bool (or .def_982 param_e6))
(define-fun .def_989 () Bool (and .def_984 .def_988))
(define-fun .def_992 () Bool (and .def_989 .def_991))
(define-fun .def_995 () Bool (and .def_992 .def_994))
(define-fun .def_977 () Bool (= call_firefly.ite38 call_firefly.ite37))
(define-fun .def_978 () Bool (or param_e5 .def_977))
(define-fun .def_973 () Bool (= call_firefly.ite38 call_firefly.ite33))
(define-fun .def_974 () Bool (or .def_969 .def_973))
(define-fun .def_968 () Bool (= call_firefly.ite27 call_firefly.ite24))
(define-fun .def_970 () Bool (or .def_968 .def_969))
(define-fun .def_964 () Bool (= call_firefly.ite26 call_firefly.ite27))
(define-fun .def_966 () Bool (or .def_964 param_e5))
(define-fun .def_971 () Bool (and .def_966 .def_970))
(define-fun .def_975 () Bool (and .def_971 .def_974))
(define-fun .def_979 () Bool (and .def_975 .def_978))
(define-fun .def_960 () Bool (= call_firefly.ite28 call_firefly.ite27))
(define-fun .def_961 () Bool (or param_e4 .def_960))
(define-fun .def_956 () Bool (= call_firefly.ite28 call_firefly.ite23))
(define-fun .def_957 () Bool (or .def_952 .def_956))
(define-fun .def_951 () Bool (= call_firefly.ite19 call_firefly.ite14))
(define-fun .def_953 () Bool (or .def_951 .def_952))
(define-fun .def_947 () Bool (= call_firefly.ite19 call_firefly.ite18))
(define-fun .def_949 () Bool (or .def_947 param_e4))
(define-fun .def_954 () Bool (and .def_949 .def_953))
(define-fun .def_958 () Bool (and .def_954 .def_957))
(define-fun .def_962 () Bool (and .def_958 .def_961))
(define-fun .def_942 () Bool (= call_firefly.ite39 call_firefly.ite38))
(define-fun .def_943 () Bool (or param_e3 .def_942))
(define-fun .def_938 () Bool (= call_firefly.ite39 call_firefly.ite32))
(define-fun .def_939 () Bool (or .def_927 .def_938))
(define-fun .def_934 () Bool (= call_firefly.ite29 call_firefly.ite28))
(define-fun .def_935 () Bool (or param_e3 .def_934))
(define-fun .def_930 () Bool (= call_firefly.ite22 call_firefly.ite29))
(define-fun .def_931 () Bool (or .def_927 .def_930))
(define-fun .def_926 () Bool (= call_firefly.ite10 call_firefly.ite3))
(define-fun .def_928 () Bool (or .def_926 .def_927))
(define-fun .def_922 () Bool (= call_firefly.ite10 call_firefly.ite9))
(define-fun .def_924 () Bool (or .def_922 param_e3))
(define-fun .def_929 () Bool (and .def_924 .def_928))
(define-fun .def_932 () Bool (and .def_929 .def_931))
(define-fun .def_936 () Bool (and .def_932 .def_935))
(define-fun .def_940 () Bool (and .def_936 .def_939))
(define-fun .def_944 () Bool (and .def_940 .def_943))
(define-fun .def_917 () Bool (= call_firefly.ite30 call_firefly.ite29))
(define-fun .def_918 () Bool (or param_e1 .def_917))
(define-fun .def_913 () Bool (= call_firefly.ite21 call_firefly.ite30))
(define-fun .def_914 () Bool (or .def_908 .def_913))
(define-fun .def_907 () Bool (= call_firefly.ite12 call_firefly.ite))
(define-fun .def_909 () Bool (or .def_907 .def_908))
(define-fun .def_903 () Bool (= call_firefly.ite11 call_firefly.ite12))
(define-fun .def_905 () Bool (or .def_903 param_e1))
(define-fun .def_910 () Bool (and .def_905 .def_909))
(define-fun .def_915 () Bool (and .def_910 .def_914))
(define-fun .def_919 () Bool (and .def_915 .def_918))
(define-fun .def_899 () Bool (= call_firefly.ite40 call_firefly.ite39))
(define-fun .def_900 () Bool (or param_e2 .def_899))
(define-fun .def_895 () Bool (= call_firefly.ite31 call_firefly.ite40))
(define-fun .def_896 () Bool (or .def_881 .def_895))
(define-fun .def_890 () Bool (= call_firefly.ite20 call_firefly.ite19))
(define-fun .def_891 () Bool (or param_e2 .def_890))
(define-fun .def_886 () Bool (= call_firefly.ite13 call_firefly.ite20))
(define-fun .def_887 () Bool (or .def_881 .def_886))
(define-fun .def_880 () Bool (= call_firefly.ite11 call_firefly.ite2))
(define-fun .def_882 () Bool (or .def_880 .def_881))
(define-fun .def_876 () Bool (= call_firefly.ite11 call_firefly.ite10))
(define-fun .def_878 () Bool (or .def_876 param_e2))
(define-fun .def_883 () Bool (and .def_878 .def_882))
(define-fun .def_888 () Bool (and .def_883 .def_887))
(define-fun .def_892 () Bool (and .def_888 .def_891))
(define-fun .def_897 () Bool (and .def_892 .def_896))
(define-fun .def_901 () Bool (and .def_897 .def_900))
(define-fun .def_920 () Bool (and .def_901 .def_919))
(define-fun .def_945 () Bool (and .def_920 .def_944))
(define-fun .def_963 () Bool (and .def_945 .def_962))
(define-fun .def_980 () Bool (and .def_963 .def_979))
(define-fun .def_996 () Bool (and .def_980 .def_995))
(define-fun .def_1010 () Bool (and .def_996 .def_1009))
(define-fun .def_1019 () Bool (and .def_1010 .def_1018))
(define-fun .def_1023 () Bool (and .def_1019 .def_1022))
(define-fun .def_1027 () Bool (and .def_1023 .def_1026))
(define-fun .def_1030 () Bool (and .def_1027 .def_1029))
(define-fun .def_1034 () Bool (and .def_1030 .def_1033))
(define-fun .def_1037 () Bool (and .def_1034 .def_1036))
(define-fun .def_1039 () Bool (and .def_1037 .def_1038))
(define-fun .def_1041 () Bool (and .def_1039 .def_1040))
(define-fun .def_1043 () Bool (and .def_1041 .def_1042))
(define-fun .def_1045 () Bool (and .def_1043 .def_1044))
(define-fun .def_1047 () Bool (and .def_1045 .def_1046))
(define-fun .def_1099 () Bool (and .def_1047 .def_1098))
(define-fun .def_1101 () Bool (and .def_1099 .def_1100))
(define-fun .def_868 () Bool (<= 5 param_i_invalid))
(define-fun .def_869 () Bool (not .def_868))
(define-fun .def_865 () Bool (<= 0 param_i_invalid))
(define-fun .def_867 () Bool (and .def_865 call_excludes8.excludes))
(define-fun .def_870 () Bool (and .def_867 .def_869))
(define-fun .def_872 () Bool (= .def_870 call_Sofar.flby))
(define-fun .def_863 () Bool (= call_firefly.flby5 0))
(define-fun .def_860 () Bool (= call_firefly.flby4 0))
(define-fun .def_857 () Bool (= call_firefly.flby3 0))
(define-fun .def_854 () Bool (= call_firefly.flby2 call_firefly.mem_invalid))
(define-fun .def_850 () Bool (= param_i_invalid call_firefly.flby))
(define-fun .def_845 () Bool (= call_firefly.ite25 0))
(define-fun .def_844 () Bool (not call_firefly.garde8))
(define-fun .def_846 () Bool (or .def_844 .def_845))
(define-fun .def_840 () Bool (= call_firefly.ite15 1))
(define-fun .def_838 () Bool (not call_firefly.garde6))
(define-fun .def_841 () Bool (or .def_838 .def_840))
(define-fun .def_834 () Bool (= call_firefly.ite22 0))
(define-fun .def_832 () Bool (not call_firefly.garde3))
(define-fun .def_835 () Bool (or .def_832 .def_834))
(define-fun .def_826 () Bool (= call_firefly.ite16 call_firefly.ite17))
(define-fun .def_829 () Bool (or .def_826 .def_828))
(define-fun .def_821 () Bool (= call_firefly.ite35 call_firefly.ite36))
(define-fun .def_822 () Bool (or .def_812 .def_821))
(define-fun .def_816 () Bool (= call_firefly.ite6 call_firefly.ite7))
(define-fun .def_817 () Bool (or .def_812 .def_816))
(define-fun .def_810 () Bool (= call_firefly.ite25 call_firefly.ite26))
(define-fun .def_813 () Bool (or .def_810 .def_812))
(define-fun .def_818 () Bool (and .def_813 .def_817))
(define-fun .def_823 () Bool (and .def_818 .def_822))
(define-fun .def_830 () Bool (and .def_823 .def_829))
(define-fun .def_836 () Bool (and .def_830 .def_835))
(define-fun .def_842 () Bool (and .def_836 .def_841))
(define-fun .def_847 () Bool (and .def_842 .def_846))
(define-fun .def_851 () Bool (and .def_847 .def_850))
(define-fun .def_855 () Bool (and .def_851 .def_854))
(define-fun .def_858 () Bool (and .def_855 .def_857))
(define-fun .def_861 () Bool (and .def_858 .def_860))
(define-fun .def_864 () Bool (and .def_861 .def_863))
(define-fun .def_873 () Bool (and .def_864 .def_872))
(define-fun .def_1102 () Bool (and .def_873 .def_1101))
(assert .def_1102)
